Route #1: 77 23 44 26 11 64 40 53
Route #2: 42 25 10 68 18 16 66 60 6
Route #3: 41 14 36 59 35 55 33 4 19 9
Route #4: 28 74 39 48 13 61 50
Route #5: 62 54 20 3 31 73 76
Route #6: 7 32 45 46 34 12 15
Route #7: 8 71 22 51 57 29 37
Route #8: 49 63 5 30 70 75 65 47
Route #9: 2 27 56 69 38 72
Route #10: 1 52 24 21 43 67 58 17
Cost 1261